Minimize

10 x_0 + 150 x_1 + 150 x_2 + 100 x_3 + 120 x_4


Subject To

a0: 1 x_0 + 1 x_1 + 0 x_2 + 0 x_3 + 0 x_4 >= 1
a1: 0 x_0 + 0 x_1 + 1 x_2 + 0 x_3 + 0 x_4 >= 1
a2: 0 x_0 + 0 x_1 + 0 x_2 + 1 x_3 + 1 x_4 >= 1
b0: 5 x_0 - 3 x_0 + 4 x_1 - 3 x_1 + 4 x_2 - 3 x_2 + 2 x_3 - 3 x_3 + 5 x_4 - 3 x_4 >= 0
c0: 10 x_0 + 150 x_1 < 150
c1: 150 x_2 < 150
c2: 100 x_3 + 120 x_4 < 150




Binary

x_0 x_1 x_2 x_3 x_4

 


End
